% demand
num_movements = 19;
loading_factor = [1350, 1150, 2000, 1450, 1900, 1100, 1650, 1100, 1850, 1300, 1700, 1700, 800, 900, 1700, 1100, 1450, 1050, 1600];
pickup_time = [0, 0, 0, 0, 1, 3, 3, 4, 4, 4, 4, 4, 4, 4, 6, 7, 7, 7, 7];
delivery_time = [1, 2, 3, 3, 2, 4, 8, 7, 8, 7, 8, 5, 5, 6, 7, 8, 8, 8, 8];

% transporter definition
total_capacity = 11000;
num_decks = 4;
capacity = [3000, 3000, 1000, 4000];

% ways out of decks
num_ways_out = 2;
paths_out = array3d(decks, ways_out, decks, [
% ways out of deck d1
2, 4, 0, 0, 3, 4, 0, 0, 

% ways out of deck d2
4, 0, 0, 0, 0, 0, 0, 0,	

% ways out of deck d3
4, 0, 0, 0, 0, 0, 0, 0,	

% ways out of deck d4
0, 0, 0, 0,	0, 0, 0, 0,	

]);

